1 1351 6
2 1125 7
3 1118 6
5 1110 6
6 1023 6
30 1021 6
35 1020 6
58 1016 6
88 1003 6
145 1000 6
152 993 6
173 990 6
303 975 6



1 1285 7
2 1108 6
3 1089 6
4 1010 6
22 995 6
58 974 6
690 961 6



1 1299 6
2 1162 6
3 1089 6
5 1078 7
7 1024 6
21 1014 6
29 1012 6
51 1001 6
157 987 6
187 970 6



1 1324 6
2 1149 6
3 1087 6
6 1084 6
7 1059 6
10 1013 6
48 1005 6
76 1004 6
96 990 6
125 984 6
190 970 6



1 1328 6
2 1151 6
3 1097 6
4 1036 6
18 1034 6
33 1030 6
63 1008 6
85 1003 6
127 992 6
407 980 6
710 977 6



